c Generated map
c Size: 9 * 9, weights in range: 1 to 10, walls: True, with ratio 0.1
c dim 7 of 7
c
p sp 81 116
c graph contains 81 nodes and 116 arcs
c
a 1 10 5
a 10 1 5
a 1 2 10
a 2 1 10
a 2 11 3
a 11 2 3
a 2 3 3
a 3 2 3
a 3 12 2
a 12 3 2
a 3 4 9
a 4 3 9
a 4 13 5
a 13 4 5
a 4 5 7
a 5 4 7
a 5 14 10
a 14 5 10
a 5 6 10
a 6 5 10
a 6 15 1
a 15 6 1
a 6 7 10
a 7 6 10
a 7 16 3
a 16 7 3
a 9 18 9
a 18 9 9
a 10 19 3
a 19 10 3
a 10 11 4
a 11 10 4
a 11 20 4
a 20 11 4
a 11 12 4
a 12 11 4
a 12 21 8
a 21 12 8
a 12 13 6
a 13 12 6
a 13 22 6
a 22 13 6
a 13 14 9
a 14 13 9
a 14 23 5
a 23 14 5
a 14 15 1
a 15 14 1
a 15 24 2
a 24 15 2
a 15 16 2
a 16 15 2
a 16 25 7
a 25 16 7
a 18 27 8
a 27 18 8
a 19 28 10
a 28 19 10
a 19 20 6
a 20 19 6
a 20 29 5
a 29 20 5
a 20 21 6
a 21 20 6
a 21 30 4
a 30 21 4
a 21 22 4
a 22 21 4
a 22 31 5
a 31 22 5
a 22 23 5
a 23 22 5
a 23 32 4
a 32 23 4
a 23 24 8
a 24 23 8
a 24 25 6
a 25 24 6
a 25 34 4
a 34 25 4
a 25 26 10
a 26 25 10
a 26 35 1
a 35 26 1
a 26 27 10
a 27 26 10
a 27 36 3
a 36 27 3
a 28 29 5
a 29 28 5
a 29 38 1
a 38 29 1
a 29 30 3
a 30 29 3
a 30 39 6
a 39 30 6
a 30 31 2
a 31 30 2
a 31 40 8
a 40 31 8
a 31 32 6
a 32 31 6
a 34 43 6
a 43 34 6
a 34 35 4
a 35 34 4
a 35 44 6
a 44 35 6
a 35 36 2
a 36 35 2
a 36 45 9
a 45 36 9
a 38 47 8
a 47 38 8
a 38 39 1
a 39 38 1
a 39 48 5
a 48 39 5
a 39 40 3
a 40 39 3
a 40 49 9
a 49 40 9
a 42 51 7
a 51 42 7
a 42 43 9
a 43 42 9
a 43 52 2
a 52 43 2
a 43 44 4
a 44 43 4
a 44 53 8
a 53 44 8
a 44 45 3
a 45 44 3
a 45 54 5
a 54 45 5
a 46 55 9
a 55 46 9
a 46 47 2
a 47 46 2
a 47 56 5
a 56 47 5
a 47 48 2
a 48 47 2
a 48 57 3
a 57 48 3
a 48 49 8
a 49 48 8
a 49 58 7
a 58 49 7
a 49 50 2
a 50 49 2
a 50 51 9
a 51 50 9
a 51 60 3
a 60 51 3
a 51 52 9
a 52 51 9
a 52 61 7
a 61 52 7
a 52 53 9
a 53 52 9
a 53 62 3
a 62 53 3
a 53 54 9
a 54 53 9
a 54 63 9
a 63 54 9
a 55 64 4
a 64 55 4
a 55 56 7
a 56 55 7
a 56 65 1
a 65 56 1
a 56 57 9
a 57 56 9
a 57 66 10
a 66 57 10
a 57 58 6
a 58 57 6
a 58 67 5
a 67 58 5
a 60 69 6
a 69 60 6
a 60 61 8
a 61 60 8
a 61 70 6
a 70 61 6
a 61 62 3
a 62 61 3
a 62 63 4
a 63 62 4
a 63 72 10
a 72 63 10
a 64 73 5
a 73 64 5
a 64 65 2
a 65 64 2
a 65 74 5
a 74 65 5
a 65 66 3
a 66 65 3
a 66 75 6
a 75 66 6
a 66 67 3
a 67 66 3
a 67 76 9
a 76 67 9
a 69 78 4
a 78 69 4
a 69 70 2
a 70 69 2
a 70 79 8
a 79 70 8
a 72 81 9
a 81 72 9
a 73 74 9
a 74 73 9
a 74 75 3
a 75 74 3
a 75 76 10
a 76 75 10
a 76 77 7
a 77 76 7
a 77 78 2
a 78 77 2
a 78 79 9
a 79 78 9
a 79 80 6
a 80 79 6
a 80 81 3
a 81 80 3
